\ENCODING=ISO-8859-1
\Problem name: ilog.cplex

Maximize
 obj: 150 x11 - 5 x13 - 110 x14 - 5 x15 - 120 x16 - 5 x19 - 130 x20 - 5 x23
      - 110 x24 - 5 x27 - 115 x28 + 0 x60 + 0 x61 + 150 x74 - 5 x76 - 130 x77
      - 5 x80 - 130 x81 - 5 x84 - 110 x85 - 5 x88 - 90 x89 - 5 x92 - 115 x93
      + 0 x130 + 0 x131 + 150 x144 - 5 x146 - 110 x147 - 5 x150 - 140 x151
      - 5 x154 - 130 x155 - 5 x158 - 100 x159 - 5 x162 - 95 x163 + 0 x198
      + 0 x199 + 150 x212 - 5 x214 - 120 x215 - 5 x218 - 110 x219 - 5 x222
      - 120 x223 - 5 x226 - 120 x227 - 5 x230 - 125 x231 + 0 x268 + 0 x269
      + 150 x282 - 5 x284 - 100 x285 - 5 x288 - 120 x289 - 5 x292 - 150 x293
      - 5 x296 - 110 x297 - 5 x300 - 105 x301 + 0 x338 + 0 x339 + 150 x350
      - 5 x352 - 90 x353 - 5 x356 - 100 x357 - 5 x360 - 140 x361 - 5 x364
      - 80 x365 - 5 x368 - 135 x369 + 0 x406 + 0 x407
Subject To
 c1:   x1 + x2 <= 200
 c3:   x5 + x6 + x7 <= 250
 c5:   - 8.8 x1 - 6.1 x2 - 2 x5 - 4.2 x6 - 5 x7 + 3 x11 <= 0
 c7:   - 8.8 x1 - 6.1 x2 - 2 x5 - 4.2 x6 - 5 x7 + 6 x11 >= 0
 c8:   - x1 - x2 - x5 - x6 - x7 + x11  = 0
 c9:   - x1 - x13 + x14  = -500
 c11:  - x2 - x15 + x16  = -500
 c13:  - x5 - x19 + x20  = -500
 c15:  - x6 - x23 + x24  = -500
 c17:  - x7 - x27 + x28  = -500
 c19:  x31 + x32 + x33 + x34 + x35 >= 2
 c21:  x36 + x37 >= 1
 c23:  x40 + x41 >= 1
 c25:  x44 + x45 >= 1
 c27:  x48 + x49 >= 1
 c29:  x52 + x53 >= 1
 c31:  x56 - x57 >= 0
 c33:  x64 + x65 <= 200
 c35:  x68 + x69 + x70 <= 250
 c37:  - 8.8 x64 - 6.1 x65 - 2 x68 - 4.2 x69 - 5 x70 + 3 x74 <= 0
 c39:  - 8.8 x64 - 6.1 x65 - 2 x68 - 4.2 x69 - 5 x70 + 6 x74 >= 0
 c41:  - x64 - x65 - x68 - x69 - x70 + x74  = 0
 c43:  x13 - x64 - x76 + x77  = 0
 c45:  x15 - x65 - x80 + x81  = 0
 c47:  x19 - x68 - x84 + x85  = 0
 c49:  x23 - x69 - x88 + x89  = 0
 c51:  x27 - x70 - x92 + x93  = 0
 c53:  x96 + x97 + x98 + x99 + x100 >= 2
 c55:  x106 + x107 >= 1
 c57:  x110 + x111 >= 1
 c59:  x114 + x115 >= 1
 c61:  x118 + x119 >= 1
 c63:  x122 + x123 >= 1
 c65:  x126 - x127 >= 0
 c67:  x134 + x135 <= 200
 c69:  x138 + x139 + x140 <= 250
 c71:  - 8.8 x134 - 6.1 x135 - 2 x138 - 4.2 x139 - 5 x140 + 3 x144 <= 0
 c73:  - 8.8 x134 - 6.1 x135 - 2 x138 - 4.2 x139 - 5 x140 + 6 x144 >= 0
 c75:  - x134 - x135 - x138 - x139 - x140 + x144  = 0
 c77:  x76 - x134 - x146 + x147  = 0
 c79:  x80 - x135 - x150 + x151  = 0
 c81:  x84 - x138 - x154 + x155  = 0
 c83:  x88 - x139 - x158 + x159  = 0
 c85:  x92 - x140 - x162 + x163  = 0
 c87:  x164 + x165 + x166 + x167 + x168 >= 2
 c89:  x174 + x175 >= 1
 c91:  x178 + x179 >= 1
 c93:  x182 + x183 >= 1
 c95:  x186 + x187 >= 1
 c97:  x190 + x191 >= 1
 c99:  x194 - x195 >= 0
 c101: x202 + x203 <= 200
 c103: x206 + x207 + x208 <= 250
 c105: - 8.8 x202 - 6.1 x203 - 2 x206 - 4.2 x207 - 5 x208 + 3 x212 <= 0
 c107: - 8.8 x202 - 6.1 x203 - 2 x206 - 4.2 x207 - 5 x208 + 6 x212 >= 0
 c109: - x202 - x203 - x206 - x207 - x208 + x212  = 0
 c111: x146 - x202 - x214 + x215  = 0
 c113: x150 - x203 - x218 + x219  = 0
 c115: x154 - x206 - x222 + x223  = 0
 c117: x158 - x207 - x226 + x227  = 0
 c119: x162 - x208 - x230 + x231  = 0
 c121: x234 + x235 + x236 + x237 + x238 >= 2
 c123: x244 + x245 >= 1
 c125: x248 + x249 >= 1
 c127: x252 + x253 >= 1
 c129: x256 + x257 >= 1
 c131: x260 + x261 >= 1
 c133: x264 - x265 >= 0
 c135: x272 + x273 <= 200
 c137: x276 + x277 + x278 <= 250
 c139: - 8.8 x272 - 6.1 x273 - 2 x276 - 4.2 x277 - 5 x278 + 3 x282 <= 0
 c141: - 8.8 x272 - 6.1 x273 - 2 x276 - 4.2 x277 - 5 x278 + 6 x282 >= 0
 c143: - x272 - x273 - x276 - x277 - x278 + x282  = 0
 c145: x214 - x272 - x284 + x285  = 0
 c147: x218 - x273 - x288 + x289  = 0
 c149: x222 - x276 - x292 + x293  = 0
 c151: x226 - x277 - x296 + x297  = 0
 c153: x230 - x278 - x300 + x301  = 0
 c155: x304 + x305 + x306 + x307 + x308 >= 2
 c157: x314 + x315 >= 1
 c159: x318 + x319 >= 1
 c161: x322 + x323 >= 1
 c163: x326 + x327 >= 1
 c165: x330 + x331 >= 1
 c167: x334 - x335 >= 0
 c169: x342 + x343 <= 200
 c171: x344 + x345 + x346 <= 250
 c173: - 8.8 x342 - 6.1 x343 - 2 x344 - 4.2 x345 - 5 x346 + 3 x350 <= 0
 c175: - 8.8 x342 - 6.1 x343 - 2 x344 - 4.2 x345 - 5 x346 + 6 x350 >= 0
 c177: - x342 - x343 - x344 - x345 - x346 + x350  = 0
 c179: x284 - x342 - x352 + x353  = 0
 c181: x288 - x343 - x356 + x357  = 0
 c183: x292 - x344 - x360 + x361  = 0
 c185: x296 - x345 - x364 + x365  = 0
 c187: x300 - x346 - x368 + x369  = 0
 c189: x372 + x373 + x374 + x375 + x376 >= 2
 c191: x382 + x383 >= 1
 c193: x386 + x387 >= 1
 c195: x390 + x391 >= 1
 c197: x394 + x395 >= 1
 c199: x398 + x399 >= 1
 c201: x402 - x403 >= 0
 IloI0:   x31 = 1 <-> x1  = 0
 IloI1:   x32 = 1 <-> x2  = 0
 IloI2:   x33 = 1 <-> x5  = 0
 IloI3:   x34 = 1 <-> x6  = 0
 IloI4:   x35 = 1 <-> x7  = 0
 IloI5:   x36 = 1 <-> x1  = 0
 IloI6:   x37 = 1 <-> x1 >= 20
 IloI7:   x40 = 1 <-> x2  = 0
 IloI8:   x41 = 1 <-> x2 >= 20
 IloI9:   x44 = 1 <-> x5  = 0
 IloI10:  x45 = 1 <-> x5 >= 20
 IloI11:  x48 = 1 <-> x6  = 0
 IloI12:  x49 = 1 <-> x6 >= 20
 IloI13:  x52 = 1 <-> x7  = 0
 IloI14:  x53 = 1 <-> x7 >= 20
 IloI15:  x56 = 1 <-> x7 >= 20
 IloI16:  x60 = 1 <-> x1 >= 20
 IloI17:  x61 = 1 <-> x2 >= 20
 IloI18:  x57 = 1 <-> x60 + x61 >= 1
 IloI19:  x96 = 1 <-> x64  = 0
 IloI20:  x97 = 1 <-> x65  = 0
 IloI21:  x98 = 1 <-> x68  = 0
 IloI22:  x99 = 1 <-> x69  = 0
 IloI23:  x100 = 1 <-> x70  = 0
 IloI24:  x106 = 1 <-> x64  = 0
 IloI25:  x107 = 1 <-> x64 >= 20
 IloI26:  x110 = 1 <-> x65  = 0
 IloI27:  x111 = 1 <-> x65 >= 20
 IloI28:  x114 = 1 <-> x68  = 0
 IloI29:  x115 = 1 <-> x68 >= 20
 IloI30:  x118 = 1 <-> x69  = 0
 IloI31:  x119 = 1 <-> x69 >= 20
 IloI32:  x122 = 1 <-> x70  = 0
 IloI33:  x123 = 1 <-> x70 >= 20
 IloI34:  x126 = 1 <-> x70 >= 20
 IloI35:  x130 = 1 <-> x64 >= 20
 IloI36:  x131 = 1 <-> x65 >= 20
 IloI37:  x127 = 1 <-> x130 + x131 >= 1
 IloI38:  x164 = 1 <-> x134  = 0
 IloI39:  x165 = 1 <-> x135  = 0
 IloI40:  x166 = 1 <-> x138  = 0
 IloI41:  x167 = 1 <-> x139  = 0
 IloI42:  x168 = 1 <-> x140  = 0
 IloI43:  x174 = 1 <-> x134  = 0
 IloI44:  x175 = 1 <-> x134 >= 20
 IloI45:  x178 = 1 <-> x135  = 0
 IloI46:  x179 = 1 <-> x135 >= 20
 IloI47:  x182 = 1 <-> x138  = 0
 IloI48:  x183 = 1 <-> x138 >= 20
 IloI49:  x186 = 1 <-> x139  = 0
 IloI50:  x187 = 1 <-> x139 >= 20
 IloI51:  x190 = 1 <-> x140  = 0
 IloI52:  x191 = 1 <-> x140 >= 20
 IloI53:  x194 = 1 <-> x140 >= 20
 IloI54:  x198 = 1 <-> x134 >= 20
 IloI55:  x199 = 1 <-> x135 >= 20
 IloI56:  x195 = 1 <-> x198 + x199 >= 1
 IloI57:  x234 = 1 <-> x202  = 0
 IloI58:  x235 = 1 <-> x203  = 0
 IloI59:  x236 = 1 <-> x206  = 0
 IloI60:  x237 = 1 <-> x207  = 0
 IloI61:  x238 = 1 <-> x208  = 0
 IloI62:  x244 = 1 <-> x202  = 0
 IloI63:  x245 = 1 <-> x202 >= 20
 IloI64:  x248 = 1 <-> x203  = 0
 IloI65:  x249 = 1 <-> x203 >= 20
 IloI66:  x252 = 1 <-> x206  = 0
 IloI67:  x253 = 1 <-> x206 >= 20
 IloI68:  x256 = 1 <-> x207  = 0
 IloI69:  x257 = 1 <-> x207 >= 20
 IloI70:  x260 = 1 <-> x208  = 0
 IloI71:  x261 = 1 <-> x208 >= 20
 IloI72:  x264 = 1 <-> x208 >= 20
 IloI73:  x268 = 1 <-> x202 >= 20
 IloI74:  x269 = 1 <-> x203 >= 20
 IloI75:  x265 = 1 <-> x268 + x269 >= 1
 IloI76:  x304 = 1 <-> x272  = 0
 IloI77:  x305 = 1 <-> x273  = 0
 IloI78:  x306 = 1 <-> x276  = 0
 IloI79:  x307 = 1 <-> x277  = 0
 IloI80:  x308 = 1 <-> x278  = 0
 IloI81:  x314 = 1 <-> x272  = 0
 IloI82:  x315 = 1 <-> x272 >= 20
 IloI83:  x318 = 1 <-> x273  = 0
 IloI84:  x319 = 1 <-> x273 >= 20
 IloI85:  x322 = 1 <-> x276  = 0
 IloI86:  x323 = 1 <-> x276 >= 20
 IloI87:  x326 = 1 <-> x277  = 0
 IloI88:  x327 = 1 <-> x277 >= 20
 IloI89:  x330 = 1 <-> x278  = 0
 IloI90:  x331 = 1 <-> x278 >= 20
 IloI91:  x334 = 1 <-> x278 >= 20
 IloI92:  x338 = 1 <-> x272 >= 20
 IloI93:  x339 = 1 <-> x273 >= 20
 IloI94:  x335 = 1 <-> x338 + x339 >= 1
 IloI95:  x372 = 1 <-> x342  = 0
 IloI96:  x373 = 1 <-> x343  = 0
 IloI97:  x374 = 1 <-> x344  = 0
 IloI98:  x375 = 1 <-> x345  = 0
 IloI99:  x376 = 1 <-> x346  = 0
 IloI100: x382 = 1 <-> x342  = 0
 IloI101: x383 = 1 <-> x342 >= 20
 IloI102: x386 = 1 <-> x343  = 0
 IloI103: x387 = 1 <-> x343 >= 20
 IloI104: x390 = 1 <-> x344  = 0
 IloI105: x391 = 1 <-> x344 >= 20
 IloI106: x394 = 1 <-> x345  = 0
 IloI107: x395 = 1 <-> x345 >= 20
 IloI108: x398 = 1 <-> x346  = 0
 IloI109: x399 = 1 <-> x346 >= 20
 IloI110: x402 = 1 <-> x346 >= 20
 IloI111: x406 = 1 <-> x342 >= 20
 IloI112: x407 = 1 <-> x343 >= 20
 IloI113: x403 = 1 <-> x406 + x407 >= 1
Bounds
 0 <= x13 <= 1000
 0 <= x15 <= 1000
 0 <= x19 <= 1000
 0 <= x23 <= 1000
 0 <= x27 <= 1000
 0 <= x31 <= 1
 0 <= x32 <= 1
 0 <= x33 <= 1
 0 <= x34 <= 1
 0 <= x35 <= 1
 0 <= x36 <= 1
 0 <= x37 <= 1
 0 <= x40 <= 1
 0 <= x41 <= 1
 0 <= x44 <= 1
 0 <= x45 <= 1
 0 <= x48 <= 1
 0 <= x49 <= 1
 0 <= x52 <= 1
 0 <= x53 <= 1
 0 <= x56 <= 1
 0 <= x57 <= 1
 0 <= x60 <= 1
 0 <= x61 <= 1
 0 <= x76 <= 1000
 0 <= x80 <= 1000
 0 <= x84 <= 1000
 0 <= x88 <= 1000
 0 <= x92 <= 1000
 0 <= x96 <= 1
 0 <= x97 <= 1
 0 <= x98 <= 1
 0 <= x99 <= 1
 0 <= x100 <= 1
 0 <= x106 <= 1
 0 <= x107 <= 1
 0 <= x110 <= 1
 0 <= x111 <= 1
 0 <= x114 <= 1
 0 <= x115 <= 1
 0 <= x118 <= 1
 0 <= x119 <= 1
 0 <= x122 <= 1
 0 <= x123 <= 1
 0 <= x126 <= 1
 0 <= x127 <= 1
 0 <= x130 <= 1
 0 <= x131 <= 1
 0 <= x146 <= 1000
 0 <= x150 <= 1000
 0 <= x154 <= 1000
 0 <= x158 <= 1000
 0 <= x162 <= 1000
 0 <= x164 <= 1
 0 <= x165 <= 1
 0 <= x166 <= 1
 0 <= x167 <= 1
 0 <= x168 <= 1
 0 <= x174 <= 1
 0 <= x175 <= 1
 0 <= x178 <= 1
 0 <= x179 <= 1
 0 <= x182 <= 1
 0 <= x183 <= 1
 0 <= x186 <= 1
 0 <= x187 <= 1
 0 <= x190 <= 1
 0 <= x191 <= 1
 0 <= x194 <= 1
 0 <= x195 <= 1
 0 <= x198 <= 1
 0 <= x199 <= 1
 0 <= x214 <= 1000
 0 <= x218 <= 1000
 0 <= x222 <= 1000
 0 <= x226 <= 1000
 0 <= x230 <= 1000
 0 <= x234 <= 1
 0 <= x235 <= 1
 0 <= x236 <= 1
 0 <= x237 <= 1
 0 <= x238 <= 1
 0 <= x244 <= 1
 0 <= x245 <= 1
 0 <= x248 <= 1
 0 <= x249 <= 1
 0 <= x252 <= 1
 0 <= x253 <= 1
 0 <= x256 <= 1
 0 <= x257 <= 1
 0 <= x260 <= 1
 0 <= x261 <= 1
 0 <= x264 <= 1
 0 <= x265 <= 1
 0 <= x268 <= 1
 0 <= x269 <= 1
 0 <= x284 <= 1000
 0 <= x288 <= 1000
 0 <= x292 <= 1000
 0 <= x296 <= 1000
 0 <= x300 <= 1000
 0 <= x304 <= 1
 0 <= x305 <= 1
 0 <= x306 <= 1
 0 <= x307 <= 1
 0 <= x308 <= 1
 0 <= x314 <= 1
 0 <= x315 <= 1
 0 <= x318 <= 1
 0 <= x319 <= 1
 0 <= x322 <= 1
 0 <= x323 <= 1
 0 <= x326 <= 1
 0 <= x327 <= 1
 0 <= x330 <= 1
 0 <= x331 <= 1
 0 <= x334 <= 1
 0 <= x335 <= 1
 0 <= x338 <= 1
 0 <= x339 <= 1
      x352 = 500
      x356 = 500
      x360 = 500
      x364 = 500
      x368 = 500
 0 <= x372 <= 1
 0 <= x373 <= 1
 0 <= x374 <= 1
 0 <= x375 <= 1
 0 <= x376 <= 1
 0 <= x382 <= 1
 0 <= x383 <= 1
 0 <= x386 <= 1
 0 <= x387 <= 1
 0 <= x390 <= 1
 0 <= x391 <= 1
 0 <= x394 <= 1
 0 <= x395 <= 1
 0 <= x398 <= 1
 0 <= x399 <= 1
 0 <= x402 <= 1
 0 <= x403 <= 1
 0 <= x406 <= 1
 0 <= x407 <= 1
Binaries
 x31  x32  x33  x34  x35  x36  x37  x40  x41  x44  x45  x48  x49  x52  x53 
 x56  x57  x60  x61  x96  x97  x98  x99  x100  x106  x107  x110  x111  x114 
 x115  x118  x119  x122  x123  x126  x127  x130  x131  x164  x165  x166  x167 
 x168  x174  x175  x178  x179  x182  x183  x186  x187  x190  x191  x194  x195 
 x198  x199  x234  x235  x236  x237  x238  x244  x245  x248  x249  x252  x253 
 x256  x257  x260  x261  x264  x265  x268  x269  x304  x305  x306  x307  x308 
 x314  x315  x318  x319  x322  x323  x326  x327  x330  x331  x334  x335  x338 
 x339  x372  x373  x374  x375  x376  x382  x383  x386  x387  x390  x391  x394 
 x395  x398  x399  x402  x403  x406  x407 
End
